RT is False
Default write of storage_offers_DA.csv just to have a file (but constraint should be inactive)
Reading model...
...model read.
creating competitive generators file...
...competitive generators recorded.
Loading data...
.. day-ahead data with real-time VRE data read.
Compiling instance...
...instance created.
Creating Offer Mitigation (model will solve as dispatch if TRUE)...
Solving...

Welcome to IBM(R) ILOG(R) CPLEX(R) Interactive Optimizer 12.9.0.0
  with Simplex, Mixed Integer & Barrier Optimizers
5725-A06 5725-A29 5724-Y48 5724-Y49 5724-Y54 5724-Y55 5655-Y21
Copyright IBM Corp. 1988, 2019.  All Rights Reserved.

Type 'help' for a list of available commands.
Type 'help' followed by a command name for more
information on commands.

CPLEX> Logfile 'cplex.log' closed.
Logfile 'C:\Users\llavin\Desktop\test919\logs\tmpzrw4ok46.cplex.log' open.
CPLEX> New value for parallel optimization mode: -1
CPLEX> New value for mixed integer optimality gap tolerance: 0.01
CPLEX> New value for integrality tolerance: 1e-09
CPLEX> New value for feasibility tolerance: 0.01
CPLEX> New value for deterministic time limit in ticks: 75000
CPLEX> Problem 'C:\Users\llavin\Desktop\test919\logs\tmpttxeysuw.pyomo.lp' read.
Read time = 0.06 sec. (3.04 ticks)
CPLEX> Problem name         : C:\Users\llavin\Desktop\test919\logs\tmpttxeysuw.pyomo.lp
Objective sense      : Minimize
Variables            :   26081  [Nneg: 1,  Box: 21616,  Free: 4464]
Objective nonzeros   :    2496
Linear constraints   :   27515  [Less: 14006,  Greater: 4416,  Equal: 9093]
  Nonzeros           :   89219
  RHS nonzeros       :   12271

Variables            : Min LB: -5000.000        Max UB: 1000000.       
Objective nonzeros   : Min   : 15.73158         Max   : 124.0997       
Linear constraints   :
  Nonzeros           : Min   : 0.8500000        Max   : 3000.000       
  RHS nonzeros       : Min   : 0.05000000       Max   : 5000.000       
CPLEX> CPXPARAM_Parallel                                -1
CPXPARAM_Simplex_Tolerances_Feasibility          0.01
CPXPARAM_DetTimeLimit                            75000
CPXPARAM_MIP_Tolerances_MIPGap                   0.01
CPXPARAM_MIP_Tolerances_Integrality              1.0000000000000001e-09
Parallel mode: opportunistic, using up to 32 threads for concurrent optimization.
Tried aggregator 1 time.
LP Presolve eliminated 21377 rows and 15487 columns.
Aggregator did 747 substitutions.
Reduced LP has 5391 rows, 9847 columns, and 31786 nonzeros.
Presolve time = 0.05 sec. (30.19 ticks)
Symmetry aggregator did 5563 additional substitutions.

Iteration log . . .
Iteration:     1   Dual objective     =             0.000000
Perturbation started.
Iteration:   101   Dual objective     =             0.000000
Iteration:   329   Dual objective     =             1.166435
Iteration:   599   Dual objective     =             1.788912
Iteration:   855   Dual objective     =             1.926309
Iteration:  1057   Dual objective     =             2.040053
Iteration:  1326   Dual objective     =             2.091684
Iteration:  1587   Dual objective     =             2.126143
Iteration:  1804   Dual objective     =        252024.668994
Iteration:  2020   Dual objective     =        527797.394054
Iteration:  2222   Dual objective     =        567615.044592
Iteration:  2422   Dual objective     =        583561.266959
Iteration:  2752   Dual objective     =        589690.538234
Removing perturbation.
Dual superbasis not built.
Using devex.

Primal simplex solved model.


Primal simplex - Optimal:  Objective =  5.8977363848e+05
Solution time =    0.17 sec.  Iterations = 1749 (1139)
Deterministic time = 81.80 ticks  (475.59 ticks/sec)

CPLEX> Solution written to file 'C:\Users\llavin\Desktop\test919\logs\tmpofslxcr9.cplex.sol'.
CPLEX> Exporting results... 
...storage offer mitigation file created
Converting model to MPEC...
...converted
NOTE: initial MIP solve with only storage competitive to get feasible solution
Solving...

Welcome to IBM(R) ILOG(R) CPLEX(R) Interactive Optimizer 12.9.0.0
  with Simplex, Mixed Integer & Barrier Optimizers
5725-A06 5725-A29 5724-Y48 5724-Y49 5724-Y54 5724-Y55 5655-Y21
Copyright IBM Corp. 1988, 2019.  All Rights Reserved.

Type 'help' for a list of available commands.
Type 'help' followed by a command name for more
information on commands.

CPLEX> Logfile 'cplex.log' closed.
Logfile 'C:\Users\llavin\Desktop\test919\logs\tmpakqg_fgk.cplex.log' open.
CPLEX> New value for parallel optimization mode: -1
CPLEX> New value for mixed integer optimality gap tolerance: 0.01
CPLEX> New value for integrality tolerance: 1e-09
CPLEX> New value for feasibility tolerance: 0.01
CPLEX> New value for deterministic time limit in ticks: 75000
CPLEX> Problem 'C:\Users\llavin\Desktop\test919\logs\tmptgnf66np.pyomo.lp' read.
Read time = 0.23 sec. (14.78 ticks)
CPLEX> Problem name         : C:\Users\llavin\Desktop\test919\logs\tmptgnf66np.pyomo.lp
Objective sense      : Maximize
Variables            :   53805  [Nneg: 1,  Box: 22000,  Free: 4464,
                                 Binary: 27340]
Objective nonzeros   :    9029
Linear constraints   :  123205  [Less: 41346,  Greater: 59096,  Equal: 22763]
  Nonzeros           :  291753
  RHS nonzeros       :   67491

Variables            : Min LB: -5000.000        Max UB: 1000000.       
Objective nonzeros   : Min   : 0.05000000       Max   : 2500.000       
Linear constraints   :
  Nonzeros           : Min   : 0.05000000       Max   : 1000000.       
  RHS nonzeros       : Min   : 0.05000000       Max   : 1000000.       
CPLEX> CPXPARAM_Parallel                                -1
CPXPARAM_Simplex_Tolerances_Feasibility          0.01
CPXPARAM_DetTimeLimit                            75000
CPXPARAM_MIP_Tolerances_MIPGap                   0.01
CPXPARAM_MIP_Tolerances_Integrality              1.0000000000000001e-09
Tried aggregator 3 times.
MIP Presolve eliminated 88727 rows and 19051 columns.
MIP Presolve added 3374 rows and 0 columns.
MIP Presolve modified 24730 coefficients.
Aggregator did 12957 substitutions.
Reduced MIP has 24895 rows, 21241 columns, and 70994 nonzeros.
Reduced MIP has 8391 binaries, 0 generals, 0 SOSs, and 0 indicators.
Presolve time = 0.30 sec. (175.86 ticks)
Probing fixed 424 vars, tightened 2889 bounds.
Probing time = 1.22 sec. (896.51 ticks)
Tried aggregator 2 times.
MIP Presolve eliminated 963 rows and 850 columns.
MIP Presolve modified 2213 coefficients.
Aggregator did 45 substitutions.
Reduced MIP has 23887 rows, 20346 columns, and 68083 nonzeros.
Reduced MIP has 7966 binaries, 0 generals, 0 SOSs, and 0 indicators.
Presolve time = 0.11 sec. (67.23 ticks)
Probing time = 0.05 sec. (16.68 ticks)
Clique table members: 6219.
MIP emphasis: balance optimality and feasibility.
MIP search method: dynamic search.
Parallel mode: opportunistic, using up to 32 threads.
Root relaxation solution time = 0.52 sec. (605.58 ticks)

        Nodes                                         Cuts/
   Node  Left     Objective  IInf  Best Integer    Best Bound    ItCnt     Gap

      0     0     1875.9623  1037                   1875.9623     6894         
      0     0     1875.9623    66                    Cuts: 54     6919         
      0     0     1875.0185    65                    Cuts: 24     6935         
      0     0     1875.0185    64                    Cuts: 10     6938         
      0     8    infeasible                       Impl Bds: 1     7364         
Elapsed time = 9.17 sec. (6078.31 ticks, tree = 0.02 MB, solutions = 0)
    474    75   -42904.7277    44                   1759.7131     9221         
   1077   464     1706.9626    18                   1746.7228    20457         
*  1238+  471                         1706.9626     1746.7228             2.33%
   2066  1127     1627.9338     1     1706.9626     1746.7228    21759    2.33%
   3086    86     1728.0104     8     1706.9626     1746.7228    22744    2.33%
   3728   176     1728.0104    12     1706.9626     1746.7228    23506    2.33%
   4089   358     1728.0104     1     1706.9626     1746.7228    24994    2.33%
   4359   414        cutoff           1706.9626     1746.7228    25410    2.33%
   4631   436     1710.7178     4     1706.9626     1746.7228    25480    2.33%
   5364   620        cutoff           1706.9626     1746.7228    26214    2.33%
Elapsed time = 24.38 sec. (8983.94 ticks, tree = 4.33 MB, solutions = 4)
   7067   743        cutoff           1706.9626     1730.7034    32202    1.39%
   8408   656     1710.7178     3     1706.9626     1727.8720    37468    1.22%

Cover cuts applied:  1
Implied bound cuts applied:  12
Flow cuts applied:  42
Gomory fractional cuts applied:  18

Root node processing (before b&c):
  Real time             =    8.14 sec. (6072.26 ticks)
Parallel b&c, 32 threads:
  Real time             =   22.78 sec. (4978.99 ticks)
  Sync time (average)   =    1.39 sec.
  Wait time (average)   =    0.00 sec.
                          ------------
Total (root+branch&cut) =   30.92 sec. (11051.25 ticks)

Solution pool: 4 solutions saved.

MIP - Integer optimal, tolerance (0.01/1e-06):  Objective =  1.7069626187e+03
Current MIP best bound =  1.7239886517e+03 (gap = 17.026, 1.00%)
Solution time =   30.95 sec.  Iterations = 39463  Nodes = 8439 (624)
Deterministic time = 11051.40 ticks  (357.04 ticks/sec)

CPLEX> Incumbent solution written to file 'C:\Users\llavin\Desktop\test919\logs\tmpzm0b6jow.cplex.sol'.
CPLEX> NOTE: no warmstart specified for MIP iteration, default behavior is true
NOTE: resolving with all competitive generators using storage-only solution to warmstart
Solving...

Welcome to IBM(R) ILOG(R) CPLEX(R) Interactive Optimizer 12.9.0.0
  with Simplex, Mixed Integer & Barrier Optimizers
5725-A06 5725-A29 5724-Y48 5724-Y49 5724-Y54 5724-Y55 5655-Y21
Copyright IBM Corp. 1988, 2019.  All Rights Reserved.

Type 'help' for a list of available commands.
Type 'help' followed by a command name for more
information on commands.

CPLEX> Logfile 'cplex.log' closed.
Logfile 'C:\Users\llavin\Desktop\test919\logs\tmpeq1wcxs_.cplex.log' open.
CPLEX> New value for parallel optimization mode: -1
CPLEX> New value for mixed integer optimality gap tolerance: 0.01
CPLEX> New value for integrality tolerance: 1e-09
CPLEX> New value for feasibility tolerance: 0.01
CPLEX> New value for deterministic time limit in ticks: 75000
CPLEX> Problem 'C:\Users\llavin\Desktop\test919\logs\tmp05onw3o7.pyomo.lp' read.
Read time = 0.27 sec. (14.81 ticks)
CPLEX> MIP start file 'C:\Users\llavin\Desktop\test919\logs\tmp4bqpyuto.cplex.mst' read.
CPLEX> Problem name         : C:\Users\llavin\Desktop\test919\logs\tmp05onw3o7.pyomo.lp
Objective sense      : Maximize
Variables            :   54525  [Nneg: 1,  Box: 22720,  Free: 4464,
                                 Binary: 27340]
Objective nonzeros   :    9725
Linear constraints   :  123205  [Less: 41346,  Greater: 59096,  Equal: 22763]
  Nonzeros           :  291753
  RHS nonzeros       :   67491

Variables            : Min LB: -5000.000        Max UB: 1000000.       
Objective nonzeros   : Min   : 0.05000000       Max   : 2500.000       
Linear constraints   :
  Nonzeros           : Min   : 0.05000000       Max   : 1000000.       
  RHS nonzeros       : Min   : 0.05000000       Max   : 1000000.       
CPLEX> CPXPARAM_Parallel                                -1
CPXPARAM_Simplex_Tolerances_Feasibility          0.01
CPXPARAM_DetTimeLimit                            75000
CPXPARAM_MIP_Tolerances_MIPGap                   0.01
CPXPARAM_MIP_Tolerances_Integrality              1.0000000000000001e-09
Warning:  No solution found from 1 MIP starts.
Retaining values of one MIP start for possible repair.
Tried aggregator 3 times.
MIP Presolve eliminated 88727 rows and 19771 columns.
MIP Presolve added 3374 rows and 0 columns.
MIP Presolve modified 24730 coefficients.
Aggregator did 12957 substitutions.
Reduced MIP has 24895 rows, 21241 columns, and 70994 nonzeros.
Reduced MIP has 8391 binaries, 0 generals, 0 SOSs, and 0 indicators.
Presolve time = 0.28 sec. (176.23 ticks)
Probing fixed 424 vars, tightened 2889 bounds.
Probing time = 1.22 sec. (896.51 ticks)
Tried aggregator 2 times.
MIP Presolve eliminated 963 rows and 850 columns.
MIP Presolve modified 2213 coefficients.
Aggregator did 45 substitutions.
Reduced MIP has 23887 rows, 20346 columns, and 68083 nonzeros.
Reduced MIP has 7966 binaries, 0 generals, 0 SOSs, and 0 indicators.
Presolve time = 0.09 sec. (67.24 ticks)
Probing time = 0.05 sec. (16.68 ticks)
Clique table members: 6219.
MIP emphasis: balance optimality and feasibility.
MIP search method: dynamic search.
Parallel mode: opportunistic, using up to 32 threads.
Root relaxation solution time = 0.41 sec. (310.25 ticks)

        Nodes                                         Cuts/
   Node  Left     Objective  IInf  Best Integer    Best Bound    ItCnt     Gap

      0     0    39053.3953  2222                  39053.3953     6965         
      0     0    38994.0999   834                   Cuts: 891     7421         
      0     0    38918.1622   619                   Cuts: 773     7756         
      0     0    38914.1183   513                   Cuts: 448     7901         
      0     0    38911.2728   485                   Cuts: 128     7947         
      0     0    38910.3611   477                    Cuts: 83     7967         
      0     0    38909.1456   475                    Cuts: 50     7974         
      0     0    38909.1456   474                    Cuts: 40     7978         
Repair heuristic found nothing.
      0    15    32903.0193   470                     Cuts: 8     8166         
Elapsed time = 10.50 sec. (5929.12 ticks, tree = 0.02 MB, solutions = 0)
    508   100    infeasible                        38324.9615     8953         
   1024   544    37290.3919   451                  38324.9615    26999         
   1591   688    28488.0257   432                  38324.9615    33346         
   2098   872    36398.2220   399                  38324.9615    44780         
   2660  1337    37770.0867   383                  38324.9615    57751         
   3298  1584    37696.7937   363                  38324.9615    62778         
   3930  2075  -488749.2689   413                  38324.9615    71669         
   4584  3194    37498.2234   312                  38324.9615    79877         
   5356  3146    36728.3826   312                  38324.9615    79801         
   9381  6259    30242.5521   392                  38324.9615    86254         
Elapsed time = 27.86 sec. (9033.63 ticks, tree = 53.86 MB, solutions = 0)
  13467 10668    37772.7655   324                  38324.9615    87307         
* 14014+ 5051                        36723.6682    38324.9615             4.36%
* 16083  5332      integral     0    37104.6853    38324.4378    96772    3.29%
  16921  5559    37919.8053   262    37104.6853    38324.4378    97500    3.29%
  17481  5155        cutoff          37104.6853    38324.4378   108955    3.29%
  19424   137    37725.6069    39    37104.6853    38046.2027   110274    2.54%
* 19819   129      integral     0    37725.4421    38046.2027   110281    0.85%
* 20387   136      integral     0    37755.3136    38046.2027   110641    0.77%
  21139   417    37329.4482    49    37755.3136    38046.2027   115081    0.77%

GUB cover cuts applied:  1
Clique cuts applied:  6
Cover cuts applied:  27
Implied bound cuts applied:  22
Flow cuts applied:  492
Mixed integer rounding cuts applied:  56
Gomory fractional cuts applied:  89

Root node processing (before b&c):
  Real time             =    8.80 sec. (5897.30 ticks)
Parallel b&c, 32 threads:
  Real time             =   48.55 sec. (13184.09 ticks)
  Sync time (average)   =    2.70 sec.
  Wait time (average)   =    0.23 sec.
                          ------------
Total (root+branch&cut) =   57.34 sec. (19081.39 ticks)

Solution pool: 6 solutions saved.

MIP - Integer optimal, tolerance (0.01/1e-06):  Objective =  3.7755313563e+04
Current MIP best bound =  3.7950053793e+04 (gap = 194.74, 0.52%)
Solution time =   57.38 sec.  Iterations = 128369  Nodes = 21143 (350)
Deterministic time = 19081.54 ticks  (332.58 ticks/sec)

CPLEX> Incumbent solution written to file 'C:\Users\llavin\Desktop\test919\logs\tmpcgs7u10_.cplex.sol'.
CPLEX> Exporting results... 
